Set parameter LicenseID to value 2609176
Set parameter TimeLimit to value 1800
Gurobi Optimizer version 11.0.3 build v11.0.3rc0 (linux64 - "Debian GNU/Linux 12 (bookworm)")

CPU model: AMD EPYC 7B12, instruction set [SSE2|AVX|AVX2]
Thread count: 4 physical cores, 8 logical processors, using up to 8 threads

Optimize a model with 706813 rows, 469225 columns and 192725993 nonzeros
Model fingerprint: 0x0689dfef
Variable types: 0 continuous, 469225 integer (469225 binary)
Coefficient statistics:
  Matrix range     [1e+00, 1e+00]
  Objective range  [0e+00, 0e+00]
  Bounds range     [1e+00, 1e+00]
  RHS range        [1e+00, 1e+00]
Presolve removed 0 rows and 0 columns (presolve time = 6s) ...
Presolve removed 343 rows and 343 columns (presolve time = 11s) ...
Presolve removed 343 rows and 343 columns (presolve time = 17s) ...
Presolve removed 343 rows and 343 columns (presolve time = 23s) ...
Presolve removed 343 rows and 343 columns (presolve time = 26s) ...
Presolve removed 343 rows and 343 columns (presolve time = 30s) ...
Presolve removed 343 rows and 343 columns (presolve time = 35s) ...
Presolve removed 343 rows and 343 columns (presolve time = 40s) ...
Presolve removed 343 rows and 343 columns (presolve time = 50s) ...
Presolve removed 343 rows and 343 columns (presolve time = 50s) ...
Presolve removed 343 rows and 343 columns (presolve time = 55s) ...
Presolve removed 343 rows and 343 columns (presolve time = 60s) ...
Presolve removed 343 rows and 343 columns (presolve time = 65s) ...
Presolve removed 343 rows and 343 columns (presolve time = 70s) ...
Presolve removed 343 rows and 343 columns (presolve time = 75s) ...
Presolve removed 343 rows and 343 columns (presolve time = 80s) ...
Presolve removed 343 rows and 343 columns (presolve time = 85s) ...
Presolve removed 343 rows and 343 columns (presolve time = 90s) ...
Presolve removed 343 rows and 343 columns (presolve time = 95s) ...
Presolve removed 2839 rows and 343 columns (presolve time = 101s) ...
Presolve removed 2839 rows and 343 columns (presolve time = 106s) ...
Presolve removed 2839 rows and 343 columns (presolve time = 113s) ...
Presolve removed 2839 rows and 343 columns (presolve time = 115s) ...
Presolve removed 2839 rows and 343 columns (presolve time = 120s) ...
Presolve removed 2839 rows and 343 columns (presolve time = 125s) ...
Presolve removed 2839 rows and 343 columns (presolve time = 131s) ...
Presolve removed 2839 rows and 343 columns (presolve time = 137s) ...
Presolve removed 2839 rows and 343 columns (presolve time = 140s) ...
Presolve removed 2839 rows and 343 columns (presolve time = 148s) ...
Presolve removed 2839 rows and 343 columns (presolve time = 150s) ...
Presolve removed 2839 rows and 343 columns (presolve time = 160s) ...
Presolve removed 2839 rows and 343 columns (presolve time = 168s) ...
Presolve removed 2839 rows and 343 columns (presolve time = 170s) ...
Presolve removed 2839 rows and 343 columns (presolve time = 175s) ...
Presolve removed 2839 rows and 343 columns (presolve time = 180s) ...
Presolve removed 2839 rows and 343 columns (presolve time = 185s) ...
Presolve removed 2839 rows and 343 columns (presolve time = 191s) ...
Presolve removed 2839 rows and 343 columns (presolve time = 196s) ...
Error: invalid user locale; possible fix is to set the system environment
       variable 'LC_ALL' to a valid locale (e.g., to 'C')
Presolve removed 2839 rows and 343 columns (presolve time = 215s) ...
Presolve removed 2839 rows and 343 columns (presolve time = 215s) ...
Presolve removed 2839 rows and 343 columns (presolve time = 220s) ...
Presolve removed 2839 rows and 343 columns (presolve time = 225s) ...
Presolve removed 2839 rows and 343 columns (presolve time = 230s) ...
Presolve removed 2839 rows and 343 columns (presolve time = 235s) ...
Presolve removed 2839 rows and 343 columns (presolve time = 240s) ...
Presolve removed 2839 rows and 343 columns (presolve time = 245s) ...
Presolve removed 2839 rows and 343 columns (presolve time = 250s) ...
Presolve removed 2839 rows and 343 columns (presolve time = 255s) ...
Presolve removed 2839 rows and 343 columns (presolve time = 260s) ...
Presolve removed 2839 rows and 343 columns (presolve time = 265s) ...
Presolve removed 2839 rows and 343 columns (presolve time = 270s) ...
Presolve removed 2839 rows and 343 columns (presolve time = 275s) ...
Presolve removed 2839 rows and 343 columns (presolve time = 280s) ...
Presolve removed 2839 rows and 343 columns (presolve time = 285s) ...
Presolve removed 2839 rows and 343 columns (presolve time = 290s) ...
Presolve removed 2839 rows and 343 columns (presolve time = 295s) ...
Presolve removed 2839 rows and 343 columns (presolve time = 300s) ...
Presolve removed 2839 rows and 343 columns (presolve time = 305s) ...
Presolve removed 2839 rows and 343 columns (presolve time = 310s) ...
Presolve removed 2839 rows and 343 columns (presolve time = 315s) ...
Presolve removed 2839 rows and 343 columns (presolve time = 320s) ...
Presolve removed 2839 rows and 343 columns (presolve time = 325s) ...
Presolve removed 2839 rows and 343 columns (presolve time = 330s) ...
Presolve removed 2839 rows and 343 columns (presolve time = 335s) ...
Presolve removed 2839 rows and 343 columns (presolve time = 340s) ...
Presolve removed 2839 rows and 343 columns (presolve time = 345s) ...
Presolve removed 2839 rows and 343 columns (presolve time = 350s) ...
Presolve removed 2839 rows and 343 columns (presolve time = 355s) ...
Presolve removed 2839 rows and 343 columns (presolve time = 360s) ...
Presolve removed 2839 rows and 343 columns (presolve time = 365s) ...
Presolve removed 2839 rows and 343 columns (presolve time = 370s) ...
Presolve removed 2839 rows and 343 columns (presolve time = 375s) ...
Presolve removed 2839 rows and 343 columns (presolve time = 380s) ...
Presolve removed 2839 rows and 343 columns (presolve time = 388s) ...
Presolve removed 2839 rows and 343 columns
Presolve time: 387.83s
Presolved: 703974 rows, 468882 columns, 191935892 nonzeros
Variable types: 0 continuous, 468882 integer (468882 binary)
